100
32
5
28
23
32
21
28
13
30
9
28
13
18
7
16
12
9
27
31
19
25
1
23
12
28
13
12
19
9
8
6
8
18
2
18
31
17
3
11
4
18
5
20
12
30
30
7
21
10
6
20
21
11
1
27
9
17
21
27
22
29
3
32
13
18
17
2
17
1
18
19
3
29
9
17
17
13
4
7
7
3
19
30
6
3
31
20
19
28
27
28
28
23
11
17
8
8
3
28
2
7